NAME : prob10a.4896.tour
COMMENT : Cost = 0_4896
COMMENT : Found by LKH [Keld Helsgaun] Sun Sep 17 01:05:32 2017
TYPE : TOUR
DIMENSION : 21
TOUR_SECTION
1
14
18
12
16
2
19
6
21
17
13
15
20
8
4
3
7
5
10
9
11
-1
EOF
